35 500
11 175
3 18
6 198
7 156
5 175
7 109
4 178
3 198
6 108
4 157
4 153
6 167
7 182
11 157
10 167
7 153
8 186
4 196
2 108
6 164
7 125
8 155
8 182
6 125
6 122
10 164
8 156
5 109
8 186
5 153
8 178
11 153
5 122
7 155
4 196
